141
0 28 98 110 60 29 33 107 6 16 
4 67 136 66 111 132 73 40 128 59 
97 2 91 9 84 36 18 65 113 69 
71 34 101 127 55 54 76 41 45 80 
38 120 13 130 89 135 134 37 78 124 
44 57 17 115 95 1 5 39 106 103 
122 30 133 21 102 22 25 138 7 19 
51 56 125 24 43 8 140 118 116 12 
58 23 47 31 70 48 42 74 63 100 
87 85 123 26 109 3 121 11 53 93 
10 94 79 49 46 114 27 50 99 108 
129 137 32 77 52 119 68 117 104 92 
105 131 14 15 75 86 82 126 112 62 
35 64 96 90 88 139 83 20 61 81 
72 
